Code 934
Dimension, Median 
   128       16     
 Facility, Client, Transportation Cost
     1        1           0
     1        2           2
     1        3           0
     1        5           3
     1        9           1
     1       17           2
     1       33           1
     1       65           3
     2        1           4
     2        2           1
     2        4           1
     2        6           3
     2       10           2
     2       18           1
     2       34           4
     2       66           3
     3        1           4
     3        3           2
     3        4           1
     3        7           0
     3       11           0
     3       19           0
     3       35           2
     3       67           1
     4        2           4
     4        3           0
     4        4           0
     4        8           4
     4       12           0
     4       20           3
     4       36           2
     4       68           2
     5        1           1
     5        5           2
     5        6           3
     5        7           4
     5       13           2
     5       21           1
     5       37           0
     5       69           1
     6        2           1
     6        5           1
     6        6           4
     6        8           2
     6       14           3
     6       22           2
     6       38           4
     6       70           2
     7        3           0
     7        5           0
     7        7           0
     7        8           2
     7       15           4
     7       23           2
     7       39           2
     7       71           3
     8        4           4
     8        6           1
     8        7           0
     8        8           3
     8       16           4
     8       24           3
     8       40           2
     8       72           0
     9        1           3
     9        9           1
     9       10           2
     9       11           2
     9       13           3
     9       25           4
     9       41           1
     9       73           1
    10        2           2
    10        9           2
    10       10           4
    10       12           3
    10       14           0
    10       26           4
    10       42           2
    10       74           3
    11        3           1
    11        9           0
    11       11           3
    11       12           4
    11       15           4
    11       27           1
    11       43           4
    11       75           0
    12        4           3
    12       10           3
    12       11           2
    12       12           0
    12       16           3
    12       28           2
    12       44           1
    12       76           2
    13        5           0
    13        9           4
    13       13           1
    13       14           0
    13       15           2
    13       29           3
    13       45           3
    13       77           1
    14        6           3
    14       10           0
    14       13           0
    14       14           4
    14       16           0
    14       30           3
    14       46           1
    14       78           1
    15        7           1
    15       11           0
    15       13           2
    15       15           0
    15       16           2
    15       31           2
    15       47           2
    15       79           0
    16        8           4
    16       12           3
    16       14           1
    16       15           1
    16       16           2
    16       32           3
    16       48           0
    16       80           1
    17        1           1
    17       17           2
    17       18           1
    17       19           1
    17       21           3
    17       25           4
    17       49           3
    17       81           4
    18        2           1
    18       17           4
    18       18           2
    18       20           1
    18       22           1
    18       26           4
    18       50           4
    18       82           0
    19        3           4
    19       17           4
    19       19           2
    19       20           0
    19       23           3
    19       27           3
    19       51           3
    19       83           3
    20        4           3
    20       18           2
    20       19           1
    20       20           0
    20       24           4
    20       28           2
    20       52           2
    20       84           4
    21        5           0
    21       17           4
    21       21           3
    21       22           3
    21       23           2
    21       29           2
    21       53           4
    21       85           2
    22        6           4
    22       18           1
    22       21           2
    22       22           0
    22       24           4
    22       30           2
    22       54           2
    22       86           0
    23        7           1
    23       19           1
    23       21           2
    23       23           4
    23       24           4
    23       31           3
    23       55           2
    23       87           0
    24        8           3
    24       20           0
    24       22           4
    24       23           1
    24       24           3
    24       32           3
    24       56           3
    24       88           4
    25        9           4
    25       17           0
    25       25           4
    25       26           0
    25       27           0
    25       29           0
    25       57           0
    25       89           2
    26       10           2
    26       18           4
    26       25           4
    26       26           3
    26       28           3
    26       30           3
    26       58           0
    26       90           1
    27       11           4
    27       19           0
    27       25           1
    27       27           2
    27       28           1
    27       31           0
    27       59           2
    27       91           1
    28       12           3
    28       20           4
    28       26           3
    28       27           3
    28       28           0
    28       32           4
    28       60           4
    28       92           4
    29       13           1
    29       21           2
    29       25           2
    29       29           2
    29       30           0
    29       31           3
    29       61           0
    29       93           0
    30       14           2
    30       22           2
    30       26           3
    30       29           1
    30       30           2
    30       32           2
    30       62           1
    30       94           3
    31       15           0
    31       23           2
    31       27           3
    31       29           1
    31       31           2
    31       32           0
    31       63           2
    31       95           1
    32       16           2
    32       24           3
    32       28           4
    32       30           1
    32       31           4
    32       32           4
    32       64           0
    32       96           3
    33        1           3
    33       33           0
    33       34           2
    33       35           0
    33       37           0
    33       41           4
    33       49           3
    33       97           1
    34        2           4
    34       33           1
    34       34           1
    34       36           2
    34       38           2
    34       42           1
    34       50           3
    34       98           2
    35        3           0
    35       33           3
    35       35           4
    35       36           3
    35       39           1
    35       43           0
    35       51           2
    35       99           4
    36        4           4
    36       34           3
    36       35           1
    36       36           1
    36       40           4
    36       44           4
    36       52           2
    36      100           2
    37        5           4
    37       33           3
    37       37           2
    37       38           0
    37       39           0
    37       45           3
    37       53           1
    37      101           1
    38        6           0
    38       34           2
    38       37           2
    38       38           1
    38       40           2
    38       46           4
    38       54           3
    38      102           2
    39        7           4
    39       35           1
    39       37           0
    39       39           1
    39       40           3
    39       47           1
    39       55           3
    39      103           3
    40        8           0
    40       36           4
    40       38           0
    40       39           3
    40       40           2
    40       48           3
    40       56           4
    40      104           3
    41        9           0
    41       33           3
    41       41           2
    41       42           3
    41       43           4
    41       45           4
    41       57           2
    41      105           3
    42       10           4
    42       34           3
    42       41           0
    42       42           1
    42       44           3
    42       46           2
    42       58           4
    42      106           3
    43       11           0
    43       35           1
    43       41           2
    43       43           4
    43       44           0
    43       47           0
    43       59           4
    43      107           2
    44       12           0
    44       36           3
    44       42           3
    44       43           2
    44       44           2
    44       48           0
    44       60           1
    44      108           4
    45       13           3
    45       37           1
    45       41           0
    45       45           4
    45       46           0
    45       47           1
    45       61           2
    45      109           3
    46       14           3
    46       38           0
    46       42           4
    46       45           3
    46       46           4
    46       48           1
    46       62           1
    46      110           2
    47       15           0
    47       39           3
    47       43           0
    47       45           0
    47       47           2
    47       48           4
    47       63           1
    47      111           2
    48       16           0
    48       40           1
    48       44           0
    48       46           3
    48       47           4
    48       48           0
    48       64           1
    48      112           3
    49       17           0
    49       33           3
    49       49           2
    49       50           4
    49       51           0
    49       53           3
    49       57           3
    49      113           2
    50       18           1
    50       34           2
    50       49           1
    50       50           1
    50       52           3
    50       54           3
    50       58           1
    50      114           3
    51       19           3
    51       35           0
    51       49           1
    51       51           0
    51       52           3
    51       55           4
    51       59           1
    51      115           2
    52       20           4
    52       36           1
    52       50           0
    52       51           2
    52       52           1
    52       56           2
    52       60           2
    52      116           2
    53       21           2
    53       37           4
    53       49           0
    53       53           3
    53       54           2
    53       55           0
    53       61           1
    53      117           0
    54       22           3
    54       38           2
    54       50           1
    54       53           4
    54       54           3
    54       56           3
    54       62           0
    54      118           3
    55       23           2
    55       39           1
    55       51           0
    55       53           0
    55       55           2
    55       56           3
    55       63           1
    55      119           1
    56       24           2
    56       40           1
    56       52           2
    56       54           2
    56       55           2
    56       56           2
    56       64           2
    56      120           0
    57       25           1
    57       41           4
    57       49           4
    57       57           1
    57       58           1
    57       59           1
    57       61           2
    57      121           3
    58       26           4
    58       42           4
    58       50           2
    58       57           2
    58       58           2
    58       60           2
    58       62           1
    58      122           4
    59       27           3
    59       43           3
    59       51           1
    59       57           0
    59       59           0
    59       60           3
    59       63           2
    59      123           0
    60       28           4
    60       44           4
    60       52           3
    60       58           3
    60       59           2
    60       60           0
    60       64           1
    60      124           2
    61       29           2
    61       45           2
    61       53           2
    61       57           3
    61       61           3
    61       62           2
    61       63           0
    61      125           4
    62       30           3
    62       46           2
    62       54           1
    62       58           4
    62       61           0
    62       62           1
    62       64           1
    62      126           3
    63       31           3
    63       47           0
    63       55           3
    63       59           3
    63       61           1
    63       63           0
    63       64           2
    63      127           1
    64       32           4
    64       48           3
    64       56           0
    64       60           0
    64       62           4
    64       63           4
    64       64           1
    64      128           0
    65        1           1
    65       65           3
    65       66           0
    65       67           1
    65       69           4
    65       73           0
    65       81           1
    65       97           2
    66        2           3
    66       65           3
    66       66           4
    66       68           3
    66       70           3
    66       74           2
    66       82           4
    66       98           4
    67        3           0
    67       65           3
    67       67           4
    67       68           2
    67       71           4
    67       75           3
    67       83           3
    67       99           2
    68        4           1
    68       66           0
    68       67           4
    68       68           2
    68       72           0
    68       76           1
    68       84           4
    68      100           4
    69        5           3
    69       65           0
    69       69           0
    69       70           1
    69       71           2
    69       77           3
    69       85           4
    69      101           0
    70        6           0
    70       66           4
    70       69           3
    70       70           3
    70       72           3
    70       78           1
    70       86           3
    70      102           4
    71        7           0
    71       67           2
    71       69           4
    71       71           1
    71       72           1
    71       79           2
    71       87           4
    71      103           3
    72        8           4
    72       68           0
    72       70           0
    72       71           3
    72       72           3
    72       80           0
    72       88           2
    72      104           3
    73        9           0
    73       65           3
    73       73           1
    73       74           1
    73       75           4
    73       77           3
    73       89           2
    73      105           1
    74       10           1
    74       66           3
    74       73           0
    74       74           0
    74       76           4
    74       78           4
    74       90           2
    74      106           1
    75       11           0
    75       67           0
    75       73           2
    75       75           2
    75       76           1
    75       79           2
    75       91           4
    75      107           3
    76       12           0
    76       68           3
    76       74           3
    76       75           3
    76       76           4
    76       80           1
    76       92           3
    76      108           3
    77       13           0
    77       69           4
    77       73           3
    77       77           4
    77       78           2
    77       79           1
    77       93           4
    77      109           2
    78       14           1
    78       70           1
    78       74           2
    78       77           4
    78       78           2
    78       80           3
    78       94           3
    78      110           0
    79       15           0
    79       71           0
    79       75           0
    79       77           2
    79       79           4
    79       80           3
    79       95           1
    79      111           3
    80       16           4
    80       72           3
    80       76           0
    80       78           4
    80       79           3
    80       80           0
    80       96           1
    80      112           2
    81       17           4
    81       65           2
    81       81           0
    81       82           0
    81       83           0
    81       85           2
    81       89           3
    81      113           4
    82       18           1
    82       66           0
    82       81           4
    82       82           1
    82       84           0
    82       86           4
    82       90           4
    82      114           0
    83       19           2
    83       67           4
    83       81           0
    83       83           1
    83       84           3
    83       87           4
    83       91           4
    83      115           3
    84       20           3
    84       68           1
    84       82           4
    84       83           2
    84       84           2
    84       88           2
    84       92           2
    84      116           3
    85       21           1
    85       69           3
    85       81           3
    85       85           2
    85       86           0
    85       87           1
    85       93           0
    85      117           4
    86       22           0
    86       70           1
    86       82           0
    86       85           0
    86       86           2
    86       88           4
    86       94           3
    86      118           4
    87       23           1
    87       71           2
    87       83           3
    87       85           0
    87       87           3
    87       88           1
    87       95           0
    87      119           3
    88       24           1
    88       72           4
    88       84           1
    88       86           0
    88       87           3
    88       88           3
    88       96           3
    88      120           0
    89       25           1
    89       73           0
    89       81           0
    89       89           2
    89       90           4
    89       91           3
    89       93           0
    89      121           1
    90       26           1
    90       74           0
    90       82           0
    90       89           0
    90       90           1
    90       92           4
    90       94           1
    90      122           3
    91       27           3
    91       75           2
    91       83           4
    91       89           1
    91       91           3
    91       92           4
    91       95           1
    91      123           0
    92       28           4
    92       76           0
    92       84           3
    92       90           0
    92       91           0
    92       92           3
    92       96           0
    92      124           3
    93       29           2
    93       77           0
    93       85           1
    93       89           0
    93       93           3
    93       94           3
    93       95           2
    93      125           1
    94       30           2
    94       78           1
    94       86           0
    94       90           4
    94       93           0
    94       94           2
    94       96           3
    94      126           0
    95       31           3
    95       79           4
    95       87           1
    95       91           2
    95       93           1
    95       95           4
    95       96           1
    95      127           1
    96       32           1
    96       80           0
    96       88           4
    96       92           2
    96       94           3
    96       95           2
    96       96           2
    96      128           2
    97       33           3
    97       65           0
    97       97           2
    97       98           4
    97       99           4
    97      101           2
    97      105           3
    97      113           4
    98       34           3
    98       66           2
    98       97           4
    98       98           2
    98      100           2
    98      102           4
    98      106           2
    98      114           1
    99       35           1
    99       67           4
    99       97           4
    99       99           1
    99      100           0
    99      103           4
    99      107           3
    99      115           4
   100       36           2
   100       68           4
   100       98           4
   100       99           0
   100      100           2
   100      104           2
   100      108           0
   100      116           4
   101       37           4
   101       69           0
   101       97           1
   101      101           0
   101      102           4
   101      103           0
   101      109           4
   101      117           1
   102       38           4
   102       70           1
   102       98           1
   102      101           2
   102      102           3
   102      104           3
   102      110           1
   102      118           3
   103       39           1
   103       71           2
   103       99           0
   103      101           3
   103      103           3
   103      104           2
   103      111           0
   103      119           1
   104       40           1
   104       72           1
   104      100           0
   104      102           0
   104      103           0
   104      104           2
   104      112           2
   104      120           3
   105       41           2
   105       73           3
   105       97           2
   105      105           2
   105      106           4
   105      107           1
   105      109           0
   105      121           3
   106       42           4
   106       74           1
   106       98           3
   106      105           3
   106      106           3
   106      108           4
   106      110           2
   106      122           0
   107       43           4
   107       75           3
   107       99           0
   107      105           1
   107      107           4
   107      108           2
   107      111           3
   107      123           0
   108       44           4
   108       76           3
   108      100           0
   108      106           1
   108      107           0
   108      108           4
   108      112           2
   108      124           2
   109       45           1
   109       77           1
   109      101           2
   109      105           4
   109      109           3
   109      110           4
   109      111           1
   109      125           1
   110       46           2
   110       78           4
   110      102           3
   110      106           1
   110      109           0
   110      110           1
   110      112           2
   110      126           2
   111       47           3
   111       79           0
   111      103           1
   111      107           3
   111      109           1
   111      111           0
   111      112           4
   111      127           4
   112       48           2
   112       80           1
   112      104           4
   112      108           1
   112      110           4
   112      111           4
   112      112           3
   112      128           1
   113       49           3
   113       81           2
   113       97           3
   113      113           1
   113      114           4
   113      115           0
   113      117           1
   113      121           3
   114       50           1
   114       82           2
   114       98           1
   114      113           4
   114      114           2
   114      116           0
   114      118           3
   114      122           3
   115       51           2
   115       83           0
   115       99           1
   115      113           4
   115      115           3
   115      116           1
   115      119           1
   115      123           3
   116       52           1
   116       84           2
   116      100           0
   116      114           3
   116      115           3
   116      116           2
   116      120           1
   116      124           4
   117       53           2
   117       85           1
   117      101           1
   117      113           3
   117      117           1
   117      118           4
   117      119           0
   117      125           1
   118       54           1
   118       86           3
   118      102           3
   118      114           0
   118      117           3
   118      118           4
   118      120           0
   118      126           3
   119       55           1
   119       87           4
   119      103           0
   119      115           0
   119      117           1
   119      119           2
   119      120           2
   119      127           3
   120       56           3
   120       88           3
   120      104           1
   120      116           4
   120      118           2
   120      119           0
   120      120           3
   120      128           0
   121       57           4
   121       89           1
   121      105           0
   121      113           0
   121      121           1
   121      122           4
   121      123           4
   121      125           0
   122       58           0
   122       90           2
   122      106           3
   122      114           1
   122      121           2
   122      122           0
   122      124           3
   122      126           3
   123       59           2
   123       91           3
   123      107           1
   123      115           1
   123      121           0
   123      123           2
   123      124           4
   123      127           2
   124       60           3
   124       92           4
   124      108           2
   124      116           2
   124      122           4
   124      123           3
   124      124           1
   124      128           0
   125       61           2
   125       93           1
   125      109           4
   125      117           0
   125      121           0
   125      125           2
   125      126           4
   125      127           0
   126       62           0
   126       94           4
   126      110           4
   126      118           2
   126      122           2
   126      125           0
   126      126           1
   126      128           2
   127       63           0
   127       95           4
   127      111           2
   127      119           3
   127      123           3
   127      125           4
   127      127           3
   127      128           1
   128       64           1
   128       96           4
   128      112           0
   128      120           4
   128      124           2
   128      126           4
   128      127           4
   128      128           3
